     Program PWSCF v.6.5 starts on 26Sep2020 at 17:39: 0

     Current dimensions of program PWSCF are:
     Max number of different atomic species (ntypx) = 10
     Max number of k-points (npk) =  40000
     Max angular momentum in pseudopotentials (lmaxx) =  3

     gamma-point specific algorithms are used
     Found symmetry operation: I + ( -0.0000  0.5000  0.0000)
     This is a supercell, fractional translations are disabled
     Message from routine setup:
     using ibrav=0 with symmetry is DISCOURAGED, use correct ibrav instead

     bravais-lattice index     =            0
     lattice parameter (alat)  =      12.0577  a.u.
     unit-cell volume          =    4758.6714 (a.u.)^3
     number of atoms/cell      =           12
     number of atomic types    =            2
     number of electrons       =       104.00
     number of Kohn-Sham states=           52
     kinetic-energy cutoff     =      35.0000  Ry
     charge density cutoff     =     140.0000  Ry
     convergence threshold     =      5.0E-03
     mixing beta               =       0.7000
     number of iterations used =            8  plain     mixing
     Exchange-correlation=  SLA  PW   PBX  PBC
                           (   1   4   3   4   0   0   0)
     nstep                     =           50

     celldm(1)=  12.057662  celldm(2)=   0.000000  celldm(3)=   0.000000
     celldm(4)=   0.000000  celldm(5)=   0.000000  celldm(6)=   0.000000

     crystal axes: (cart. coord. in units of alat)
               a(1) = (   1.000000   0.000000   0.000000 )
               a(2) = (  -0.500000   0.866025   0.000000 )
               a(3) = (   0.000000   0.000000   3.134482 )

     reciprocal axes: (cart. coord. in units 2 pi/alat)
               b(1) = (  1.000000  0.577350 -0.000000 )
               b(2) = (  0.000000  1.154701  0.000000 )
               b(3) = (  0.000000 -0.000000  0.319032 )

     PseudoPot. # 1 for Mo read from file:
     ../../pseudos/Mo_ONCV_PBE-1.0.oncvpsp.upf
     MD5 check sum: 1b5d28e075c9ccadda658a603575cd1f
     Pseudo is Norm-conserving, Zval = 14.0
     Generated using ONCVPSP code by D. R. Hamann
     Using radial grid of 1526 points,  6 beta functions with:
                l(1) =   0
                l(2) =   0
                l(3) =   1
                l(4) =   1
                l(5) =   2
                l(6) =   2

     PseudoPot. # 2 for S  read from file:
     ../../pseudos/s_pbe_v1.4.uspp.F.UPF
     MD5 check sum: 88d86576ff6df21479756cfb9bdac1df
     Pseudo is Ultrasoft + core correction, Zval =  6.0
     Generated by new atomic code, or converted to UPF format
     Using radial grid of  907 points,  6 beta functions with:
                l(1) =   0
                l(2) =   0
                l(3) =   1
                l(4) =   1
                l(5) =   2
                l(6) =   2
     Q(r) pseudized with  8 coefficients,  rinner =    1.300   1.300   1.300
                                                       1.300   1.300

     atomic species   valence    mass     pseudopotential
        Mo            14.00    95.95000     Mo( 1.00)
        S              6.00    32.06000     S ( 1.00)

     12 Sym. Ops. (no inversion) found

   Cartesian axes

     site n.     atom                  positions (alat units)
         1           Mo  tau(   1) = (  -0.0000025   0.2886766   1.5672409  )
         2           S   tau(   2) = (   0.2500025   0.1443361   1.3219990  )
         3           S   tau(   3) = (   0.2500025   0.1443361   1.8124828  )
         4           Mo  tau(   4) = (  -0.2500025   0.7216893   1.5672409  )
         5           S   tau(   5) = (   0.0000025   0.5773488   1.3219990  )
         6           S   tau(   6) = (   0.0000025   0.5773488   1.8124828  )
         7           Mo  tau(   7) = (   0.4999975   0.2886766   1.5672409  )
         8           S   tau(   8) = (   0.7500025   0.1443361   1.3219990  )
         9           S   tau(   9) = (   0.7500025   0.1443361   1.8124828  )
        10           Mo  tau(  10) = (   0.2499975   0.7216893   1.5672409  )
        11           S   tau(  11) = (   0.5000025   0.5773488   1.3219990  )
        12           S   tau(  12) = (   0.5000025   0.5773488   1.8124828  )

     number of k points=     1
                       cart. coord. in units 2pi/alat
        k(    1) = (   0.0000000   0.0000000   0.0000000), wk =   2.0000000

     Initial potential from superposition of free atoms

     starting charge  103.99576, renormalised to  104.00000

     negative rho (up, down):  1.231E-03 0.000E+00
     Starting wfcs are   72 randomized atomic wfcs

     Self-consistent Calculation

     iteration #  1     ecut=    35.00 Ry     beta= 0.70
     Davidson diagonalization with overlap
     ethr =  1.00E-02,  avg # of iterations =  3.0

     Threshold (ethr) on eigenvalues was too large:
     Diagonalizing with lowered threshold

     Davidson diagonalization with overlap
     ethr =  3.85E-04,  avg # of iterations =  2.0

     negative rho (up, down):  1.000E-03 0.000E+00

     total energy              =    -741.79694611 Ry
     Harris-Foulkes estimate   =    -742.04594563 Ry
     estimated scf accuracy    <       0.41840699 Ry

[...]

     End of self-consistent calculation

          k = 0.0000 0.0000 0.0000 (  8304 PWs)   bands (ev):

   -62.1272 -62.0956 -62.0864 -62.0820 -36.5630 -36.5608 -36.5561 -36.2821
   -36.2803 -36.2758 -36.1946 -36.1938 -36.0697 -36.0003 -35.9918 -35.9872
   -15.4160 -14.0912 -13.5769 -13.5763 -13.5754 -13.3675 -13.3667 -13.3656
    -7.1084  -7.1076  -7.1070  -6.9186  -6.0819  -6.0812  -6.0807  -5.3798
    -5.3790  -5.3783  -4.4739  -4.4731  -4.4716  -4.0460  -4.0458  -3.1230
    -3.1229  -3.1223  -3.0144  -2.8090  -2.8087  -2.3527  -2.3524  -2.3515
    -1.9708  -1.9704  -1.9701  -1.1915

     highest occupied level (ev):    -1.1915

!    total energy              =    -741.91681901 Ry
     Harris-Foulkes estimate   =    -741.91976780 Ry
     estimated scf accuracy    <       0.00438873 Ry

     The total energy is the sum of the following terms:

     one-electron contribution =   -4451.04504257 Ry
     hartree contribution      =    2224.15421298 Ry
     xc contribution           =    -130.22419853 Ry
     ewald contribution        =    1615.19820911 Ry

     convergence has been achieved in   4 iterations

[...]

     Forces acting on atoms (cartesian axes, Ry/au):

     atom    1 type  1   force =     0.00000000   -0.00000626    0.00000000
     atom    2 type  2   force =    -0.00018531   -0.00010699   -0.01691452
     atom    3 type  2   force =    -0.00018531   -0.00010699    0.01691452
     atom    4 type  1   force =    -0.00000542    0.00000313    0.00000000
     atom    5 type  2   force =     0.00000000    0.00000000   -0.01669735
     atom    6 type  2   force =    -0.00000000   -0.00000000    0.01669735
     atom    7 type  1   force =     0.00000000   -0.00000000    0.00000000
     atom    8 type  2   force =     0.00018531   -0.00010699   -0.01691452
     atom    9 type  2   force =     0.00018531   -0.00010699    0.01691452
     atom   10 type  1   force =     0.00000542    0.00000313    0.00000000
     atom   11 type  2   force =    -0.00000000    0.00021398   -0.01691452
     atom   12 type  2   force =    -0.00000000    0.00021398    0.01691452

     Total force =     0.047692     Total SCF correction =     0.183501
     SCF correction compared to forces is large: reduce conv_thr to get better values

     Computing stress (Cartesian axis) and pressure

     negative rho (up, down):  8.685E-04 0.000E+00
          total   stress  (Ry/bohr**3)                   (kbar)     P=       -2.02
  -0.00004818  -0.00000000  -0.00000000           -7.09       -0.00       -0.00
   0.00000000  -0.00004818  -0.00000000            0.00       -7.09       -0.00
   0.00000000  -0.00000000   0.00005523            0.00       -0.00        8.12

     BFGS Geometry Optimization

     number of scf cycles    =   1
     number of bfgs steps    =   0

     enthalpy new            =    -741.9168190075 Ry

     new trust radius        =       0.0190498401 bohr
     new conv_thr            =       0.0050000000 Ry

     new unit-cell volume =   4753.76827 a.u.^3 (   704.43577 Ang^3 )
     density =      1.50931 g/cm^3

CELL_PARAMETERS (angstrom)
   6.372953728   0.000000000   0.000000000
  -3.186476864   5.519139826  -0.000000000
  -0.000000000  -0.000000000  20.027615218

ATOMIC_POSITIONS (angstrom)
Mo           -0.0000159324        1.8397191630       10.0138076091
S             1.5931564199        0.9197908907        8.4378838569
S             1.5931564199        0.9197908907       11.5897313614
Mo           -1.5932572317        4.5992940421       10.0138076091
S             0.0000159324        3.6794173518        8.4379989348
S             0.0000159324        3.6794173518       11.5896162835
Mo            3.1864609317        1.8397224738       10.0138076091
S             4.7798291730        0.9197908907        8.4378838569
S             4.7798291730        0.9197908907       11.5897313614
Mo            1.5932253669        4.5992940421       10.0138076091
S             3.1864927964        3.6795304484        8.4378838569
S             3.1864927964        3.6795304484       11.5897313614

     Writing output data file ./pwscf.save/
     NEW-OLD atomic charge density approx. for the potential

     negative rho (up, down):  9.230E-04 0.000E+00
     extrapolated charge  103.89274, renormalised to  104.00000

[...]

     enthalpy old            =    -741.9168190075 Ry
     enthalpy new            =    -741.9183862532 Ry

     CASE: enthalpy_new < enthalpy_old

[...]

     number of scf cycles    =   7
     number of bfgs steps    =   6

     enthalpy old            =    -741.9244536992 Ry
     enthalpy new            =    -741.9244620728 Ry

     CASE: enthalpy_new < enthalpy_old

     new trust radius        =       0.0089267582 bohr
     new conv_thr            =       0.0000500000 Ry

     new unit-cell volume =   4698.01893 a.u.^3 (   696.17457 Ang^3 )
     density =      1.52722 g/cm^3

[...]

ATOMIC_POSITIONS (angstrom)
Mo           -0.0000158399        1.8289983316       10.0123268600
S             1.5838480015        0.9144167797        8.4163691132
S             1.5838480015        0.9144167797       11.6082846067
Mo           -1.5840361915        4.5726020608       10.0123268600
S             0.0000158399        3.6580491941        8.4163059218
S             0.0000158399        3.6580491941       11.6083477981
Mo            3.1679556105        1.8290383148       10.0123268600
S             4.7521265789        0.9144167797        8.4163691132
S             4.7521265789        0.9144167797       11.6082846067
Mo            1.5840045118        4.5726020608       10.0123268600
S             3.1679872902        3.6582265139        8.4163691132
S             3.1679872902        3.6582265139       11.6082846067

     Writing output data file ./pwscf.save/
     NEW-OLD atomic charge density approx. for the potential

     negative rho (up, down):  8.340E-04 0.000E+00
     extrapolated charge  104.13757, renormalised to  104.00000

[...]

     bfgs converged in   8 scf cycles and   7 bfgs steps
     (criteria: energy <  1.0E-04 Ry, force <  1.0E-03Ry/Bohr, cell <  5.0E-01kbar)

     End of BFGS Geometry Optimization

     Final enthalpy =    -741.9244702741 Ry
Begin final coordinates
     new unit-cell volume =   4698.01893 a.u.^3 (   696.17457 Ang^3 )
     density =      1.52722 g/cm^3

CELL_PARAMETERS (angstrom)
   6.335942901   0.000000000   0.000000000
  -3.167971450   5.487087509  -0.000000000
  -0.000000000  -0.000000000  20.024653720

ATOMIC_POSITIONS (angstrom)
Mo           -0.0000158399        1.8289983316       10.0123268600
S             1.5838480015        0.9144167797        8.4163691132
S             1.5838480015        0.9144167797       11.6082846067
Mo           -1.5840361915        4.5726020608       10.0123268600
S             0.0000158399        3.6580491941        8.4163059218
S             0.0000158399        3.6580491941       11.6083477981
Mo            3.1679556105        1.8290383148       10.0123268600
S             4.7521265789        0.9144167797        8.4163691132
S             4.7521265789        0.9144167797       11.6082846067
Mo            1.5840045118        4.5726020608       10.0123268600
S             3.1679872902        3.6582265139        8.4163691132
S             3.1679872902        3.6582265139       11.6082846067
End final coordinates

     Writing output data file ./pwscf.save/

     Final scf calculation at the relaxed structure.
     The G-vectors are recalculated for the final unit cell
     Results may differ from those at the preceding step.

     bravais-lattice index     =            0
     lattice parameter (alat)  =      12.0577  a.u.
     unit-cell volume          =    4698.0189 (a.u.)^3
     number of atoms/cell      =           12
     number of atomic types    =            2
     number of electrons       =       104.00
     number of Kohn-Sham states=           52
     kinetic-energy cutoff     =      35.0000  Ry
     charge density cutoff     =     140.0000  Ry
     convergence threshold     =      5.0E-05
     mixing beta               =       0.7000
     number of iterations used =            8  plain     mixing
     Exchange-correlation=  SLA  PW   PBX  PBC
                           (   1   4   3   4   0   0   0)

     celldm(1)=  12.057662  celldm(2)=   0.000000  celldm(3)=   0.000000
     celldm(4)=   0.000000  celldm(5)=   0.000000  celldm(6)=   0.000000

     crystal axes: (cart. coord. in units of alat)
               a(1) = (   0.992995   0.000000   0.000000 )
               a(2) = (  -0.496497   0.859959  -0.000000 )
               a(3) = (  -0.000000  -0.000000   3.138346 )

     reciprocal axes: (cart. coord. in units 2 pi/alat)
               b(1) = (  1.007055  0.581423  0.000000 )
               b(2) = ( -0.000000  1.162846  0.000000 )
               b(3) = ( -0.000000  0.000000  0.318639 )

     PseudoPot. # 1 for Mo read from file:
     ../../pseudos/Mo_ONCV_PBE-1.0.oncvpsp.upf
     MD5 check sum: 1b5d28e075c9ccadda658a603575cd1f
     Pseudo is Norm-conserving, Zval = 14.0
     Generated using ONCVPSP code by D. R. Hamann
     Using radial grid of 1526 points,  6 beta functions with:
                l(1) =   0
                l(2) =   0
                l(3) =   1
                l(4) =   1
                l(5) =   2
                l(6) =   2

     PseudoPot. # 2 for S  read from file:
     ../../pseudos/s_pbe_v1.4.uspp.F.UPF
     MD5 check sum: 88d86576ff6df21479756cfb9bdac1df
     Pseudo is Ultrasoft + core correction, Zval =  6.0
     Generated by new atomic code, or converted to UPF format
     Using radial grid of  907 points,  6 beta functions with:
                l(1) =   0
                l(2) =   0
                l(3) =   1
                l(4) =   1
                l(5) =   2
                l(6) =   2
     Q(r) pseudized with  8 coefficients,  rinner =    1.300   1.300   1.300
                                                       1.300   1.300

     atomic species   valence    mass     pseudopotential
        Mo            14.00    95.95000     Mo( 1.00)
        S              6.00    32.06000     S ( 1.00)

     12 Sym. Ops. (no inversion) found

   Cartesian axes

     site n.     atom                  positions (alat units)
         1           Mo  tau(   1) = (  -0.0000025   0.2866481   1.5691728  )
         2           S   tau(   2) = (   0.2482271   0.1433111   1.3190478  )
         3           S   tau(   3) = (   0.2482271   0.1433111   1.8192978  )
         4           Mo  tau(   4) = (  -0.2482566   0.7166369   1.5691728  )
         5           S   tau(   5) = (   0.0000025   0.5733044   1.3190379  )
         6           S   tau(   6) = (   0.0000025   0.5733044   1.8193077  )
         7           Mo  tau(   7) = (   0.4964950   0.2866544   1.5691728  )
         8           S   tau(   8) = (   0.7447727   0.1433111   1.3190478  )
         9           S   tau(   9) = (   0.7447727   0.1433111   1.8192978  )
        10           Mo  tau(  10) = (   0.2482517   0.7166369   1.5691728  )
        11           S   tau(  11) = (   0.4964999   0.5733322   1.3190478  )
        12           S   tau(  12) = (   0.4964999   0.5733322   1.8192978  )

     number of k points=     1
                       cart. coord. in units 2pi/alat
        k(    1) = (   0.0000000   0.0000000   0.0000000), wk =   2.0000000

     Initial potential from superposition of free atoms

     starting charge  103.99576, renormalised to  104.00000

     negative rho (up, down):  1.227E-03 0.000E+00
     Starting wfcs are   72 randomized atomic wfcs

     Self-consistent Calculation

[...]

     total energy              =    -741.92440194 Ry
     Harris-Foulkes estimate   =    -741.92444251 Ry
     estimated scf accuracy    <       0.00014962 Ry

     iteration #  8     ecut=    35.00 Ry     beta= 0.70
     Davidson diagonalization with overlap
     ethr =  1.44E-07,  avg # of iterations =  4.0

[...]

     End of self-consistent calculation

          k = 0.0000 0.0000 0.0000 (  8238 PWs)   bands (ev):

   -62.0718 -62.0357 -62.0327 -62.0256 -36.4693 -36.4662 -36.4648 -36.1767
   -36.1737 -36.1722 -36.0853 -36.0852 -36.0366 -35.9624 -35.9596 -35.9531
   -15.1917 -13.9636 -13.2769 -13.2754 -13.2747 -13.1437 -13.1421 -13.1417
    -6.9295  -6.9288  -6.9281  -6.7406  -5.9603  -5.9600  -5.9595  -5.1888
    -5.1882  -5.1872  -4.1869  -4.1863  -4.1857  -3.7024  -3.7023  -3.0691
    -3.0679  -3.0677  -2.9656  -2.4965  -2.4962  -2.0251  -2.0250  -2.0249
    -1.8404  -1.8401  -1.8400  -1.2404

     highest occupied level (ev):    -1.2404

!    total energy              =    -741.92442153 Ry
     Harris-Foulkes estimate   =    -741.92443534 Ry
     estimated scf accuracy    <       0.00001497 Ry

     The total energy is the sum of the following terms:

     one-electron contribution =   -4483.83000285 Ry
     hartree contribution      =    2241.15680524 Ry
     xc contribution           =    -130.19920274 Ry
     ewald contribution        =    1630.94797882 Ry

     convergence has been achieved in   8 iterations

     negative rho (up, down):  8.447E-04 0.000E+00

     Forces acting on atoms (cartesian axes, Ry/au):

     atom    1 type  1   force =     0.00000000    0.00006175    0.00000000
     atom    2 type  2   force =     0.00005085    0.00002936    0.00013085
     atom    3 type  2   force =     0.00005085    0.00002936   -0.00013085
     atom    4 type  1   force =     0.00005348   -0.00003088    0.00000000
     atom    5 type  2   force =    -0.00000000    0.00000000    0.00008771
     atom    6 type  2   force =     0.00000000    0.00000000   -0.00008771
     atom    7 type  1   force =     0.00000000   -0.00000000   -0.00000000
     atom    8 type  2   force =    -0.00005085    0.00002936    0.00013085
     atom    9 type  2   force =    -0.00005085    0.00002936   -0.00013085
     atom   10 type  1   force =    -0.00005348   -0.00003088   -0.00000000
     atom   11 type  2   force =     0.00000000   -0.00005871    0.00013085
     atom   12 type  2   force =     0.00000000   -0.00005871   -0.00013085

     Total force =     0.000388     Total SCF correction =     0.012170
     SCF correction compared to forces is large: reduce conv_thr to get better values

     Computing stress (Cartesian axis) and pressure

     negative rho (up, down):  8.447E-04 0.000E+00
          total   stress  (Ry/bohr**3)                   (kbar)     P=        0.22
   0.00000257  -0.00000000   0.00000000            0.38       -0.00        0.00
  -0.00000000   0.00000257   0.00000000           -0.00        0.38        0.00
   0.00000000   0.00000000  -0.00000063            0.00        0.00       -0.09

     Writing output data file ./pwscf.save/

     General routines

   This run was terminated on:  17:43: 9  26Sep2020

   JOB DONE.