     Program PWSCF v.6.5 starts on 26Sep2020 at 16:46:24

     Current dimensions of program PWSCF are:
     Max number of different atomic species (ntypx) = 10
     Max number of k-points (npk) =  40000
     Max angular momentum in pseudopotentials (lmaxx) =  3

     gamma-point specific algorithms are used
     Message from routine setup:
     using ibrav=0 with symmetry is DISCOURAGED, use correct ibrav instead

     bravais-lattice index     =            0
     lattice parameter (alat)  =       6.0288  a.u.
     unit-cell volume          =    1189.6679 (a.u.)^3
     number of atoms/cell      =            3
     number of atomic types    =            2
     number of electrons       =        26.00
     number of Kohn-Sham states=           13
     kinetic-energy cutoff     =      35.0000  Ry
     charge density cutoff     =     140.0000  Ry
     convergence threshold     =      5.0E-03
     mixing beta               =       0.7000
     number of iterations used =            8  plain     mixing
     Exchange-correlation=  SLA  PW   PBX  PBC
                           (   1   4   3   4   0   0   0)
     nstep                     =           50

     celldm(1)=   6.028831  celldm(2)=   0.000000  celldm(3)=   0.000000
     celldm(4)=   0.000000  celldm(5)=   0.000000  celldm(6)=   0.000000

     crystal axes: (cart. coord. in units of alat)
               a(1) = (   1.000000   0.000000   0.000000 )
               a(2) = (  -0.500000   0.866025   0.000000 )
               a(3) = (   0.000000   0.000000   6.268964 )

     reciprocal axes: (cart. coord. in units 2 pi/alat)
               b(1) = (  1.000000  0.577350 -0.000000 )
               b(2) = (  0.000000  1.154701  0.000000 )
               b(3) = (  0.000000 -0.000000  0.159516 )

     PseudoPot. # 1 for Mo read from file:
     ../../pseudos/Mo_ONCV_PBE-1.0.oncvpsp.upf
     MD5 check sum: 1b5d28e075c9ccadda658a603575cd1f
     Pseudo is Norm-conserving, Zval = 14.0
     Generated using ONCVPSP code by D. R. Hamann
     Using radial grid of 1526 points,  6 beta functions with:
                l(1) =   0
                l(2) =   0
                l(3) =   1
                l(4) =   1
                l(5) =   2
                l(6) =   2

     PseudoPot. # 2 for S  read from file:
     ../../pseudos/s_pbe_v1.4.uspp.F.UPF
     MD5 check sum: 88d86576ff6df21479756cfb9bdac1df
     Pseudo is Ultrasoft + core correction, Zval =  6.0
     Generated by new atomic code, or converted to UPF format
     Using radial grid of  907 points,  6 beta functions with:
                l(1) =   0
                l(2) =   0
                l(3) =   1
                l(4) =   1
                l(5) =   2
                l(6) =   2
     Q(r) pseudized with  8 coefficients,  rinner =    1.300   1.300   1.300
                                                       1.300   1.300

     atomic species   valence    mass     pseudopotential
        Mo            14.00    95.95000     Mo( 1.00)
        S              6.00    32.06000     S ( 1.00)

      4 Sym. Ops. (no inversion) found

   Cartesian axes

     site n.     atom                  positions (alat units)
         1           Mo  tau(   1) = (  -0.0000050   0.5773532   3.1344818  )
         2           S   tau(   2) = (   0.5000050   0.2886722   2.6439981  )
         3           S   tau(   3) = (   0.5000050   0.2886722   3.6249655  )

     number of k points=     1
                       cart. coord. in units 2pi/alat
        k(    1) = (   0.0000000   0.0000000   0.0000000), wk =   2.0000000

     Initial potential from superposition of free atoms

     starting charge   25.99894, renormalised to   26.00000

     negative rho (up, down):  3.060E-04 0.000E+00
     Starting wfcs are   18 randomized atomic wfcs

     Self-consistent Calculation

     iteration #  1     ecut=    35.00 Ry     beta= 0.70
     Davidson diagonalization with overlap
     ethr =  1.00E-02,  avg # of iterations =  2.0

     negative rho (up, down):  1.478E-04 0.000E+00

     total energy              =    -184.02946154 Ry
     Harris-Foulkes estimate   =    -185.16418919 Ry
     estimated scf accuracy    <       1.43885375 Ry

[...]

     End of self-consistent calculation

          k = 0.0000 0.0000 0.0000 (  2082 PWs)   bands (ev):

   -61.2969 -35.4047 -35.4046 -35.3755 -16.4610 -15.3498  -7.4536  -4.3604
    -4.3603  -3.9520  -3.4628  -3.4623  -1.5098

     highest occupied level (ev):    -1.5098

!    total energy              =    -184.97224674 Ry
     Harris-Foulkes estimate   =    -184.97268396 Ry
     estimated scf accuracy    <       0.00075600 Ry

     The total energy is the sum of the following terms:

     one-electron contribution =   -1112.26089949 Ry
     hartree contribution      =     556.22471588 Ry
     xc contribution           =     -32.73561539 Ry
     ewald contribution        =     403.79955226 Ry

     convergence has been achieved in   7 iterations

[...]

     Forces acting on atoms (cartesian axes, Ry/au):

     atom    1 type  1   force =    -0.00007228    0.00004173    0.00000000
     atom    2 type  2   force =     0.00003614   -0.00002087    0.10833370
     atom    3 type  2   force =     0.00003614   -0.00002087   -0.10833370

     Total force =     0.153207     Total SCF correction =     0.029757
     SCF correction compared to forces is large: reduce conv_thr to get better values

     Computing stress (Cartesian axis) and pressure

     negative rho (up, down):  1.878E-04 0.000E+00
          total   stress  (Ry/bohr**3)                   (kbar)     P=       35.72
   0.00063033  -0.00000027   0.00000000           92.72       -0.04        0.00
  -0.00000027   0.00063001   0.00000000           -0.04       92.68        0.00
  -0.00000000  -0.00000000  -0.00053187           -0.00       -0.00      -78.24

     BFGS Geometry Optimization

     number of scf cycles    =   1
     number of bfgs steps    =   0

     enthalpy new            =    -184.9722467389 Ry

     new trust radius        =       0.1087054281 bohr
     new conv_thr            =       0.0050000000 Ry

     new unit-cell volume =   1211.12681 a.u.^3 (   179.47048 Ang^3 )
     density =      1.48104 g/cm^3

CELL_PARAMETERS (angstrom)
   3.240593901  -0.000021795  -0.000000000
  -1.620315825   2.806425744  -0.000000000
   0.000000000   0.000000000  19.734064045

ATOMIC_POSITIONS (angstrom)
Mo           -0.0000676393        1.8709750178        9.8670320225
S             1.6203262883        0.9354401474        8.3796043031
S             1.6203262883        0.9354401474       11.3544597420

     Writing output data file ./pwscf.save/
     NEW-OLD atomic charge density approx. for the potential

     negative rho (up, down):  2.182E-04 0.000E+00
     extrapolated charge   26.46065, renormalised to   26.00000

[...]

     enthalpy old            =    -184.9722467389 Ry
     enthalpy new            =    -185.0193336292 Ry

     CASE: enthalpy_new < enthalpy_old

[...]

     iteration #  2     ecut=    35.00 Ry     beta= 0.70
     Davidson diagonalization with overlap
     c_bands:  2 eigenvalues not converged
     ethr =  1.00E-02,  avg # of iterations = 20.0

[...]

     iteration #  2     ecut=    35.00 Ry     beta= 0.70
     Davidson diagonalization with overlap
     c_bands:  1 eigenvalues not converged
     ethr =  1.00E-02,  avg # of iterations = 20.0

[...]

     WARNING: bfgs curvature condition failed, Theta= 0.783
     new trust radius        =       0.0699925690 bohr
     new conv_thr            =       0.0011909805 Ry

[...]

     CASE: enthalpy_new > enthalpy_old

[...]

     new trust radius        =       0.0000387510 bohr

     trust_radius < trust_radius_min

     resetting bfgs history

     new conv_thr            =       0.0001708672 Ry

[...]

     CASE: enthalpy_new < enthalpy_old

[...]

     Threshold (ethr) on eigenvalues was too large:
     Diagonalizing with lowered threshold

     Davidson diagonalization with overlap
     ethr =  6.55E-08,  avg # of iterations =  2.0

[...]

     new trust radius        =       0.0001064086 bohr
     new conv_thr            =       0.0000500000 Ry

[...]

     new conv_thr            =       0.0000500000 Ry

[...]

     negative rho (up, down):  4.200E-04 0.000E+00
     extrapolated charge   25.99367, renormalised to   26.00000

[...]

     number of scf cycles    =  27
     number of bfgs steps    =  13

     enthalpy old            =    -185.0727165003 Ry
     enthalpy new            =    -185.0726846256 Ry

     CASE: enthalpy_new > enthalpy_old

     new trust radius        =       0.0000831890 bohr

     trust_radius < trust_radius_min

     resetting bfgs history

     Message from routine bfgs:
     history already reset at previous step: stopping
     new conv_thr            =       0.0000500000 Ry

     new unit-cell volume =   1359.27468 a.u.^3 (   201.42372 Ang^3 )
     density =      1.31962 g/cm^3

[...]

ATOMIC_POSITIONS (angstrom)
Mo           -0.0014659474        2.0068881204        9.6184290436
S             1.7386699671        1.0022201817        8.2295009511
S             1.7386699671        1.0022201817       11.0073571362

     Writing output data file ./pwscf.save/
     NEW-OLD atomic charge density approx. for the potential

[...]

     Message from routine bfgs:
     history already reset at previous step: stopping

     bfgs converged in  28 scf cycles and  13 bfgs steps
     (criteria: energy <  1.0E-04 Ry, force <  1.0E-03Ry/Bohr, cell <  5.0E-01kbar)

     End of BFGS Geometry Optimization

     Final enthalpy =    -185.0727077640 Ry
Begin final coordinates
     new unit-cell volume =   1359.27468 a.u.^3 (   201.42372 Ang^3 )
     density =      1.31962 g/cm^3

CELL_PARAMETERS (angstrom)
   3.478437280  -0.002234945  -0.000000000
  -1.741154159   3.011297578  -0.000000000
   0.000000000   0.000000000  19.236858087

ATOMIC_POSITIONS (angstrom)
Mo           -0.0014659474        2.0068881204        9.6184290436
S             1.7386699671        1.0022201817        8.2295009511
S             1.7386699671        1.0022201817       11.0073571362
End final coordinates

     Writing output data file ./pwscf.save/

     Final scf calculation at the relaxed structure.
     The G-vectors are recalculated for the final unit cell
     Results may differ from those at the preceding step.

     bravais-lattice index     =            0
     lattice parameter (alat)  =       6.0288  a.u.
     unit-cell volume          =    1359.2747 (a.u.)^3
     number of atoms/cell      =            3
     number of atomic types    =            2
     number of electrons       =        26.00
     number of Kohn-Sham states=           13
     kinetic-energy cutoff     =      35.0000  Ry
     charge density cutoff     =     140.0000  Ry
     convergence threshold     =      5.0E-05
     mixing beta               =       0.7000
     number of iterations used =            8  plain     mixing
     Exchange-correlation=  SLA  PW   PBX  PBC
                           (   1   4   3   4   0   0   0)

     celldm(1)=   6.028831  celldm(2)=   0.000000  celldm(3)=   0.000000
     celldm(4)=   0.000000  celldm(5)=   0.000000  celldm(6)=   0.000000

     crystal axes: (cart. coord. in units of alat)
               a(1) = (   1.090310  -0.000701  -0.000000 )
               a(2) = (  -0.545762   0.943886  -0.000000 )
               a(3) = (   0.000000   0.000000   6.029758 )

     reciprocal axes: (cart. coord. in units 2 pi/alat)
               b(1) = (  0.917511  0.530512 -0.000000 )
               b(2) = (  0.000681  1.059844 -0.000000 )
               b(3) = (  0.000000  0.000000  0.165844 )

     PseudoPot. # 1 for Mo read from file:
     ../../pseudos/Mo_ONCV_PBE-1.0.oncvpsp.upf
     MD5 check sum: 1b5d28e075c9ccadda658a603575cd1f
     Pseudo is Norm-conserving, Zval = 14.0
     Generated using ONCVPSP code by D. R. Hamann
     Using radial grid of 1526 points,  6 beta functions with:
                l(1) =   0
                l(2) =   0
                l(3) =   1
                l(4) =   1
                l(5) =   2
                l(6) =   2

     PseudoPot. # 2 for S  read from file:
     ../../pseudos/s_pbe_v1.4.uspp.F.UPF
     MD5 check sum: 88d86576ff6df21479756cfb9bdac1df
     Pseudo is Ultrasoft + core correction, Zval =  6.0
     Generated by new atomic code, or converted to UPF format
     Using radial grid of  907 points,  6 beta functions with:
                l(1) =   0
                l(2) =   0
                l(3) =   1
                l(4) =   1
                l(5) =   2
                l(6) =   2
     Q(r) pseudized with  8 coefficients,  rinner =    1.300   1.300   1.300
                                                       1.300   1.300

     atomic species   valence    mass     pseudopotential
        Mo            14.00    95.95000     Mo( 1.00)
        S              6.00    32.06000     S ( 1.00)

      4 Sym. Ops. (no inversion) found

   Cartesian axes

     site n.     atom                  positions (alat units)
         1           Mo  tau(   1) = (  -0.0004595   0.6290554   3.0148791  )
         2           S   tau(   2) = (   0.5449829   0.3141441   2.5795221  )
         3           S   tau(   3) = (   0.5449829   0.3141441   3.4502361  )

     number of k points=     1
                       cart. coord. in units 2pi/alat
        k(    1) = (   0.0000000   0.0000000   0.0000000), wk =   2.0000000

     Initial potential from superposition of free atoms

     starting charge   25.99894, renormalised to   26.00000

     negative rho (up, down):  3.126E-04 0.000E+00
     Starting wfcs are   18 randomized atomic wfcs

     Self-consistent Calculation

[...]

     total energy              =    -185.07375190 Ry
     Harris-Foulkes estimate   =    -185.07384752 Ry
     estimated scf accuracy    <       0.00036854 Ry

     iteration #  8     ecut=    35.00 Ry     beta= 0.70
     Davidson diagonalization with overlap
     ethr =  8.54E-07,  avg # of iterations =  3.0

[...]

     End of self-consistent calculation

          k = 0.0000 0.0000 0.0000 (  2381 PWs)   bands (ev):

   -62.2877 -36.6000 -36.5927 -35.9802 -16.4634 -14.7838  -7.5120  -5.9206
    -5.9086  -4.5323  -4.5299  -3.0254  -0.8492

     highest occupied level (ev):    -0.8492

!    total energy              =    -185.07379791 Ry
     Harris-Foulkes estimate   =    -185.07380305 Ry
     estimated scf accuracy    <       0.00000638 Ry

     The total energy is the sum of the following terms:

     one-electron contribution =    -937.56118852 Ry
     hartree contribution      =     467.91885761 Ry
     xc contribution           =     -32.62710021 Ry
     ewald contribution        =     317.19563321 Ry

     convergence has been achieved in   8 iterations

     negative rho (up, down):  1.667E-04 0.000E+00

     Forces acting on atoms (cartesian axes, Ry/au):

     atom    1 type  1   force =     0.00005785   -0.00003340   -0.00000000
     atom    2 type  2   force =    -0.00002892    0.00001670   -0.00067268
     atom    3 type  2   force =    -0.00002892    0.00001670    0.00067268

     Total force =     0.000955     Total SCF correction =     0.003660
     SCF correction compared to forces is large: reduce conv_thr to get better values

     Computing stress (Cartesian axis) and pressure

     negative rho (up, down):  1.667E-04 0.000E+00
          total   stress  (Ry/bohr**3)                   (kbar)     P=        0.92
   0.00001066   0.00000014   0.00000000            1.57        0.02        0.00
   0.00000014   0.00001082   0.00000000            0.02        1.59        0.00
  -0.00000000  -0.00000000  -0.00000269           -0.00       -0.00       -0.40

     Writing output data file ./pwscf.save/

     General routines

   This run was terminated on:  16:48:45  26Sep2020

   JOB DONE.